! HF DEF2-SVP LARGEPRINT
# Creat by orcacal
* xyz 0 1
C -0.000040 -0.006496 0.133566
Cl -0.047930 1.695922 -0.377036
Cl -1.426948 -0.856081 -0.501549
Cl 1.475290 -0.772966 -0.496639
H -0.000372 -0.060380 1.241657
*
% pal nprocs 20 end
% maxcore 400
