! HF DEF2-SVP LARGEPRINT
# Creat by orcacal% pal nprocs 20 end
% pal nprocs 20 end
% maxcore 400
* xyz 0 1
C 0.681899 0.031160 0.189777
Cl 1.440311 -1.490984 -0.340601
Cl 1.409727 1.389623 -0.703674
C -0.819158 -0.016351 -0.060722
H 0.873446 0.169935 1.274675
H -1.025806 -0.155003 -1.143372
H -1.270710 -0.858853 0.504722
H -1.289709 0.930473 0.279195
*
