! HF DEF2-SVP LARGEPRINT
% pal nprocs 20 end
% maxcore 1000
* xyz 0 1
O 0.008935 0.404022 0.000000
H -0.787313 -0.184699 0.000000
H 0.778378 -0.219323 0.000000
*
